100
120
100
99
99
98
98
98
96
96
95
94
94
94
93
92
91
90
90
89
88
87
84
83
82
79
78
78
78
77
76
74
74
74
73
73
72
71
70
69
69
67
64
64
63
63
63
62
61
61
60
60
59
58
57
56
55
54
54
54
54
53
53
51
51
50
50
50
49
48
48
48
47
45
44
44
44
43
42
42
41
41
40
38
38
38
38
37
35
30
29
28
27
27
26
26
25
25
24
22
22
21
